\ LP format - for model browsing. Use MPS format to capture full model detail.
Minimize
  0 B18(0) + 0 B28(0) + 0 B31(0) + 0 B35(0) + 0 B38(0) + 0 B45(0) + 0 B46(0)
   + 0 B47(0) + 0 B48(0) + 0 B54(0) + 0 B55(0) + 0 B56(0) + 0 B58(0)
   + 0 B61(0) + 0 B63(0) + 0 B64(0) + 0 B65(0) + 0 B68(0) + 0 B72(0)
   + 0 B73(0) + 0 B74(0) + 0 B75(0) + 0 B76(0) + 0 B77(0) + 0 B78(0)
   + 0 B81(0) + 0 B82(0) + 0 B83(0) + 0 B84(0) + 0 B85(0) + 0 B86(0)
   + 0 B88(0) + 0 B89(0) + 0 B90(0) + 0 B91(0) + 0 B92(0) + 0 B93(0)
   + 0 B94(0) + 0 B95(0) + 0 B97(0) + 0 B98(0) + I117(1)
Subject To
 c0: 4 B0(21) + I99(23) - 1e+07 B118(5) >= -9.999994e+06
 c1: 4 B0(21) + I99(23) - 1e+07 B118(5) <= 6
 c2: 3 B1(15) + I100(17) - 1e+07 B119(5) >= -9.999994e+06
 c3: 3 B1(15) + I100(17) - 1e+07 B119(5) <= 6
 c4: 4 B6(19) + I105(22) - 1e+07 B120(5) >= -9.999991e+06
 c5: 4 B6(19) + I105(22) - 1e+07 B120(5) <= 9
 c6: 2 B7(15) + I106(18) - 1e+07 B121(5) >= -9.999991e+06
 c7: 2 B7(15) + I106(18) - 1e+07 B121(5) <= 9
 c8: 5 B12(19) + I111(21) - 1e+07 B122(5) >= -9.999994e+06
 c9: 5 B12(19) + I111(21) - 1e+07 B122(5) <= 6
 c10: 4 B13(15) + I112(17) - 1e+07 B123(5) >= -9.999994e+06
 c11: 4 B13(15) + I112(17) - 1e+07 B123(5) <= 6
 c12: B118(5) >= 0
 c13: B119(5) >= 0
 c14: B120(5) >= 0
 c15: B121(5) >= 0
 c16: B122(5) >= 0
 c17: B123(5) >= 0
 c18: B0(21) + B1(15) = 1
 c19: B2(5) + B3(19) = 1
 c20: B4(20) + B5(14) = 1
 c21: B6(19) + B7(15) = 1
 c22: B8(14) + B9(12) = 1
 c23: B10(17) + B11(13) = 1
 c24: B12(19) + B13(15) = 1
 c25: B14(5) + B15(17) = 1
 c26: B16(9) + B17(13) = 1
 c27: - 1e+07 B0(21) + I99(23) <= 0
 c28: - 1e+07 B1(15) + I100(17) <= 0
 c29: - 1e+07 B2(5) + I101(7) <= 0
 c30: - 1e+07 B3(19) + I102(21) <= 0
 c31: - 1e+07 B4(20) + I103(20) <= 0
 c32: - 1e+07 B5(14) + I104(14) <= 0
 c33: - 1e+07 B6(19) + I105(22) <= 0
 c34: - 1e+07 B7(15) + I106(18) <= 0
 c35: - 1e+07 B8(14) + I107(14) <= 0
 c36: - 1e+07 B9(12) + I108(12) <= 0
 c37: - 1e+07 B10(17) + I109(18) <= 0
 c38: - 1e+07 B11(13) + I110(14) <= 0
 c39: - 1e+07 B12(19) + I111(21) <= 0
 c40: - 1e+07 B13(15) + I112(17) <= 0
 c41: - 1e+07 B14(5) + I113(7) <= 0
 c42: - 1e+07 B15(17) + I114(19) <= 0
 c43: - 1e+07 B16(9) + I115(10) <= 0
 c44: - 1e+07 B17(13) + I116(14) <= 0
 c45: - 2 B2(5) - 2 B3(19) + I99(23) + I100(17) - I101(7) - I102(21) >= 0
 c46: - 5 B4(20) - 4 B5(14) + I101(7) + I102(21) - I103(20) - I104(14)
   >= 0
 c47: - 5 B8(14) - 4 B9(12) + I105(22) + I106(18) - I107(14) - I108(12)
   >= 0
 c48: - 3 B10(17) - 5 B11(13) + I105(22) + I106(18) - I109(18) - I110(14)
   >= 0
 c49: - 2 B14(5) - 2 B15(17) + I111(21) + I112(17) - I113(7) - I114(19)
   >= 0
 c50: - 2 B16(9) - 5 B17(13) + I113(7) + I114(19) - I115(10) - I116(14)
   >= 0
 c51: - 1e+07 B0(21) - 1e+07 B3(19) + 1e+07 B19(2) - I99(23) + I102(21)
   >= -1.999999e+07
 c52: - 1e+07 B0(21) - 1e+07 B3(19) - 1e+07 B19(2) + I99(23) - I102(21)
   >= -2.9999978e+07
 c53: - 1e+07 B0(21) - 1e+07 B4(20) + 1e+07 B20(4) - I99(23) + I103(20)
   >= -1.999999e+07
 c54: - 1e+07 B0(21) - 1e+07 B4(20) - 1e+07 B20(4) + I99(23) - I103(20)
   >= -2.9999991e+07
 c55: - 1e+07 B1(15) - 1e+07 B5(14) + 1e+07 B20(4) - I100(17) + I104(14)
   >= -1.9999991e+07
 c56: - 1e+07 B1(15) - 1e+07 B5(14) - 1e+07 B20(4) + I100(17) - I104(14)
   >= -2.9999991e+07
 c57: - 1e+07 B0(21) - 1e+07 B6(19) + 1e+07 B21(2) - I99(23) + I105(22)
   >= -1.9999971e+07
 c58: - 1e+07 B0(21) - 1e+07 B6(19) - 1e+07 B21(2) + I99(23) - I105(22)
   >= -2.9999993e+07
 c59: - 1e+07 B1(15) - 1e+07 B9(12) + 1e+07 B22(2) - I100(17) + I108(12)
   >= -1.9999995e+07
 c60: - 1e+07 B1(15) - 1e+07 B9(12) - 1e+07 B22(2) + I100(17) - I108(12)
   >= -2.999999e+07
 c61: - 1e+07 B0(21) - 1e+07 B10(17) + 1e+07 B23(2) - I99(23) + I109(18)
   >= -1.9999981e+07
 c62: - 1e+07 B0(21) - 1e+07 B10(17) - 1e+07 B23(2) + I99(23) - I109(18)
   >= -2.9999992e+07
 c63: - 1e+07 B0(21) - 1e+07 B12(19) + 1e+07 B24(4) - I99(23) + I111(21)
   >= -1.9999992e+07
 c64: - 1e+07 B0(21) - 1e+07 B12(19) - 1e+07 B24(4) + I99(23) - I111(21)
   >= -2.9999975e+07
 c65: - 1e+07 B1(15) - 1e+07 B13(15) + 1e+07 B24(4) - I100(17) + I112(17)
   >= -1.9999977e+07
 c66: - 1e+07 B1(15) - 1e+07 B13(15) - 1e+07 B24(4) + I100(17) - I112(17)
   >= -2.9999981e+07
 c67: - 1e+07 B0(21) - 1e+07 B15(17) + 1e+07 B25(2) - I99(23) + I114(19)
   >= -1.9999992e+07
 c68: - 1e+07 B0(21) - 1e+07 B15(17) - 1e+07 B25(2) + I99(23) - I114(19)
   >= -2.999999e+07
 c69: - 1e+07 B1(15) - 1e+07 B17(13) + 1e+07 B26(2) - I100(17) + I116(14)
   >= -1.9999982e+07
 c70: - 1e+07 B1(15) - 1e+07 B17(13) - 1e+07 B26(2) + I100(17) - I116(14)
   >= -2.9999987e+07
 c71: - 1e+07 B0(21) - 1e+07 B3(19) + 1e+07 B27(2) + I99(23) - I102(21)
   >= -1.9999978e+07
 c72: - 1e+07 B0(21) - 1e+07 B3(19) - 1e+07 B27(2) - I99(23) + I102(21)
   >= -2.999999e+07
 c73: - 1e+07 B3(19) - 1e+07 B4(20) + 1e+07 B29(2) - I102(21) + I103(20)
   >= -1.9999989e+07
 c74: - 1e+07 B3(19) - 1e+07 B4(20) - 1e+07 B29(2) + I102(21) - I103(20)
   >= -2.9999975e+07
 c75: - 1e+07 B3(19) - 1e+07 B6(19) + 1e+07 B30(2) - I102(21) + I105(22)
   >= -1.9999989e+07
 c76: - 1e+07 B3(19) - 1e+07 B6(19) - 1e+07 B30(2) + I102(21) - I105(22)
   >= -2.9999987e+07
 c77: - 1e+07 B3(19) - 1e+07 B10(17) + 1e+07 B32(2) - I102(21) + I109(18)
   >= -1.9999992e+07
 c78: - 1e+07 B3(19) - 1e+07 B10(17) - 1e+07 B32(2) + I102(21) - I109(18)
   >= -2.9999995e+07
 c79: - 1e+07 B3(19) - 1e+07 B12(19) + 1e+07 B33(2) - I102(21) + I111(21)
   >= -1.9999994e+07
 c80: - 1e+07 B3(19) - 1e+07 B12(19) - 1e+07 B33(2) + I102(21) - I111(21)
   >= -2.9999986e+07
 c81: - 1e+07 B2(5) - 1e+07 B14(5) + 1e+07 B34(4) - I101(7) + I113(7)
   >= -1.999999e+07
 c82: - 1e+07 B2(5) - 1e+07 B14(5) - 1e+07 B34(4) + I101(7) - I113(7)
   >= -2.9999995e+07
 c83: - 1e+07 B3(19) - 1e+07 B15(17) + 1e+07 B34(4) - I102(21) + I114(19)
   >= -1.9999995e+07
 c84: - 1e+07 B3(19) - 1e+07 B15(17) - 1e+07 B34(4) + I102(21) - I114(19)
   >= -2.9999989e+07
 c85: - 1e+07 B0(21) - 1e+07 B4(20) + 1e+07 B36(4) + I99(23) - I103(20)
   >= -1.9999991e+07
 c86: - 1e+07 B0(21) - 1e+07 B4(20) - 1e+07 B36(4) - I99(23) + I103(20)
   >= -2.999999e+07
 c87: - 1e+07 B1(15) - 1e+07 B5(14) + 1e+07 B36(4) + I100(17) - I104(14)
   >= -1.9999991e+07
 c88: - 1e+07 B1(15) - 1e+07 B5(14) - 1e+07 B36(4) - I100(17) + I104(14)
   >= -2.9999991e+07
 c89: - 1e+07 B3(19) - 1e+07 B4(20) + 1e+07 B37(2) + I102(21) - I103(20)
   >= -1.9999975e+07
 c90: - 1e+07 B3(19) - 1e+07 B4(20) - 1e+07 B37(2) - I102(21) + I103(20)
   >= -2.9999989e+07
 c91: - 1e+07 B4(20) - 1e+07 B6(19) + 1e+07 B39(2) - I103(20) + I105(22)
   >= -1.9999975e+07
 c92: - 1e+07 B4(20) - 1e+07 B6(19) - 1e+07 B39(2) + I103(20) - I105(22)
   >= -2.9999981e+07
 c93: - 1e+07 B5(14) - 1e+07 B9(12) + 1e+07 B40(2) - I104(14) + I108(12)
   >= -1.9999976e+07
 c94: - 1e+07 B5(14) - 1e+07 B9(12) - 1e+07 B40(2) + I104(14) - I108(12)
   >= -2.9999991e+07
 c95: - 1e+07 B4(20) - 1e+07 B10(17) + 1e+07 B41(2) - I103(20) + I109(18)
   >= -1.9999989e+07
 c96: - 1e+07 B4(20) - 1e+07 B10(17) - 1e+07 B41(2) + I103(20) - I109(18)
   >= -2.9999985e+07
 c97: - 1e+07 B4(20) - 1e+07 B12(19) + 1e+07 B42(4) - I103(20) + I111(21)
   >= -1.9999989e+07
 c98: - 1e+07 B4(20) - 1e+07 B12(19) - 1e+07 B42(4) + I103(20) - I111(21)
   >= -2.9999985e+07
 c99: - 1e+07 B5(14) - 1e+07 B13(15) + 1e+07 B42(4) - I104(14) + I112(17)
   >= -1.999998e+07
 c100: - 1e+07 B5(14) - 1e+07 B13(15) - 1e+07 B42(4) + I104(14) - I112(17)
   >= -2.9999988e+07
 c101: - 1e+07 B4(20) - 1e+07 B15(17) + 1e+07 B43(2) - I103(20) + I114(19)
   >= -1.9999989e+07
 c102: - 1e+07 B4(20) - 1e+07 B15(17) - 1e+07 B43(2) + I103(20) - I114(19)
   >= -2.9999992e+07
 c103: - 1e+07 B5(14) - 1e+07 B17(13) + 1e+07 B44(2) - I104(14) + I116(14)
   >= -1.9999992e+07
 c104: - 1e+07 B5(14) - 1e+07 B17(13) - 1e+07 B44(2) + I104(14) - I116(14)
   >= -2.9999986e+07
 c105: - 1e+07 B7(15) - 1e+07 B8(14) + 1e+07 B49(2) - I106(18) + I107(14)
   >= -1.9999996e+07
 c106: - 1e+07 B7(15) - 1e+07 B8(14) - 1e+07 B49(2) + I106(18) - I107(14)
   >= -2.9999991e+07
 c107: - 1e+07 B6(19) - 1e+07 B10(17) + 1e+07 B50(4) - I105(22) + I109(18)
   >= -1.9999994e+07
 c108: - 1e+07 B6(19) - 1e+07 B10(17) - 1e+07 B50(4) + I105(22) - I109(18)
   >= -2.9999985e+07
 c109: - 1e+07 B7(15) - 1e+07 B11(13) + 1e+07 B50(4) - I106(18) + I110(14)
   >= -1.9999994e+07
 c110: - 1e+07 B7(15) - 1e+07 B11(13) - 1e+07 B50(4) + I106(18) - I110(14)
   >= -2.9999983e+07
 c111: - 1e+07 B6(19) - 1e+07 B12(19) + 1e+07 B51(2) - I105(22) + I111(21)
   >= -1.9999988e+07
 c112: - 1e+07 B6(19) - 1e+07 B12(19) - 1e+07 B51(2) + I105(22) - I111(21)
   >= -2.9999989e+07
 c113: - 1e+07 B6(19) - 1e+07 B15(17) + 1e+07 B52(2) - I105(22) + I114(19)
   >= -1.999999e+07
 c114: - 1e+07 B6(19) - 1e+07 B15(17) - 1e+07 B52(2) + I105(22) - I114(19)
   >= -2.9999978e+07
 c115: - 1e+07 B7(15) - 1e+07 B16(9) + 1e+07 B53(2) - I106(18) + I115(10)
   >= -1.9999996e+07
 c116: - 1e+07 B7(15) - 1e+07 B16(9) - 1e+07 B53(2) + I106(18) - I115(10)
   >= -2.9999978e+07
 c117: - 1e+07 B7(15) - 1e+07 B8(14) + 1e+07 B57(2) + I106(18) - I107(14)
   >= -1.9999991e+07
 c118: - 1e+07 B7(15) - 1e+07 B8(14) - 1e+07 B57(2) - I106(18) + I107(14)
   >= -2.9999996e+07
 c119: - 1e+07 B8(14) - 1e+07 B11(13) + 1e+07 B59(2) - I107(14) + I110(14)
   >= -1.9999989e+07
 c120: - 1e+07 B8(14) - 1e+07 B11(13) - 1e+07 B59(2) + I107(14) - I110(14)
   >= -2.9999991e+07
 c121: - 1e+07 B9(12) - 1e+07 B13(15) + 1e+07 B60(2) - I108(12) + I112(17)
   >= -1.9999992e+07
 c122: - 1e+07 B9(12) - 1e+07 B13(15) - 1e+07 B60(2) + I108(12) - I112(17)
   >= -2.9999976e+07
 c123: - 1e+07 B8(14) - 1e+07 B16(9) + 1e+07 B62(4) - I107(14) + I115(10)
   >= -1.9999983e+07
 c124: - 1e+07 B8(14) - 1e+07 B16(9) - 1e+07 B62(4) + I107(14) - I115(10)
   >= -2.9999988e+07
 c125: - 1e+07 B9(12) - 1e+07 B17(13) + 1e+07 B62(4) - I108(12) + I116(14)
   >= -1.9999984e+07
 c126: - 1e+07 B9(12) - 1e+07 B17(13) - 1e+07 B62(4) + I108(12) - I116(14)
   >= -2.999999e+07
 c127: - 1e+07 B6(19) - 1e+07 B10(17) + 1e+07 B66(4) + I105(22) - I109(18)
   >= -1.9999985e+07
 c128: - 1e+07 B6(19) - 1e+07 B10(17) - 1e+07 B66(4) - I105(22) + I109(18)
   >= -2.9999994e+07
 c129: - 1e+07 B7(15) - 1e+07 B11(13) + 1e+07 B66(4) + I106(18) - I110(14)
   >= -1.9999983e+07
 c130: - 1e+07 B7(15) - 1e+07 B11(13) - 1e+07 B66(4) - I106(18) + I110(14)
   >= -2.9999994e+07
 c131: - 1e+07 B8(14) - 1e+07 B11(13) + 1e+07 B67(2) + I107(14) - I110(14)
   >= -1.9999991e+07
 c132: - 1e+07 B8(14) - 1e+07 B11(13) - 1e+07 B67(2) - I107(14) + I110(14)
   >= -2.9999989e+07
 c133: - 1e+07 B10(17) - 1e+07 B12(19) + 1e+07 B69(2) - I109(18) + I111(21)
   >= -1.9999992e+07
 c134: - 1e+07 B10(17) - 1e+07 B12(19) - 1e+07 B69(2) + I109(18) - I111(21)
   >= -2.9999989e+07
 c135: - 1e+07 B10(17) - 1e+07 B15(17) + 1e+07 B70(2) - I109(18) + I114(19)
   >= -1.9999993e+07
 c136: - 1e+07 B10(17) - 1e+07 B15(17) - 1e+07 B70(2) + I109(18) - I114(19)
   >= -2.9999973e+07
 c137: - 1e+07 B11(13) - 1e+07 B16(9) + 1e+07 B71(2) - I110(14) + I115(10)
   >= -1.9999975e+07
 c138: - 1e+07 B11(13) - 1e+07 B16(9) - 1e+07 B71(2) + I110(14) - I115(10)
   >= -2.9999986e+07
 c139: - 1e+07 B12(19) - 1e+07 B15(17) + 1e+07 B79(2) - I111(21) + I114(19)
   >= -1.9999986e+07
 c140: - 1e+07 B12(19) - 1e+07 B15(17) - 1e+07 B79(2) + I111(21) - I114(19)
   >= -2.9999993e+07
 c141: - 1e+07 B13(15) - 1e+07 B17(13) + 1e+07 B80(2) - I112(17) + I116(14)
   >= -1.9999981e+07
 c142: - 1e+07 B13(15) - 1e+07 B17(13) - 1e+07 B80(2) + I112(17) - I116(14)
   >= -2.9999987e+07
 c143: - 1e+07 B12(19) - 1e+07 B15(17) + 1e+07 B87(2) + I111(21) - I114(19)
   >= -1.9999993e+07
 c144: - 1e+07 B12(19) - 1e+07 B15(17) - 1e+07 B87(2) - I111(21) + I114(19)
   >= -2.9999986e+07
 c145: - 1e+07 B13(15) - 1e+07 B17(13) + 1e+07 B96(2) + I112(17) - I116(14)
   >= -1.9999987e+07
 c146: - 1e+07 B13(15) - 1e+07 B17(13) - 1e+07 B96(2) - I112(17) + I116(14)
   >= -2.9999981e+07
 c147: - B0(21) + I99(23) >= 0
 c148: I99(23) >= 0
 c149: - B1(15) + I100(17) >= 0
 c150: I100(17) >= 0
 c151: I101(7) >= 0
 c152: I101(7) >= 0
 c153: I102(21) >= 0
 c154: I102(21) >= 0
 c155: - 3 B4(20) + I103(20) >= 0
 c156: I103(20) >= 0
 c157: - 3 B5(14) + I104(14) >= 0
 c158: I104(14) >= 0
 c159: - 3 B6(19) + I105(22) >= 0
 c160: I105(22) >= 0
 c161: - 3 B7(15) + I106(18) >= 0
 c162: I106(18) >= 0
 c163: - 2 B8(14) + I107(14) >= 0
 c164: I107(14) >= 0
 c165: - 2 B9(12) + I108(12) >= 0
 c166: I108(12) >= 0
 c167: I109(18) >= 0
 c168: I109(18) >= 0
 c169: I110(14) >= 0
 c170: I110(14) >= 0
 c171: - B12(19) + I111(21) >= 0
 c172: I111(21) >= 0
 c173: - B13(15) + I112(17) >= 0
 c174: I112(17) >= 0
 c175: I113(7) >= 0
 c176: I113(7) >= 0
 c177: I114(19) >= 0
 c178: I114(19) >= 0
 c179: I115(10) >= 0
 c180: I115(10) >= 0
 c181: I116(14) >= 0
 c182: I116(14) >= 0
 qc0: I117(1) + 2 B118(5) + 3 B119(5) + 5 B120(5) + 7 B121(5) + B122(5)
   + 2 B123(5) + [ - I99(23) * B118(5) - I100(17) * B119(5)
   - I105(22) * B120(5) - I106(18) * B121(5) - I111(21) * B122(5)
   - I112(17) * B123(5) ] >= 0
Bounds
Binaries
 B0(21) B1(15) B2(5) B3(19) B4(20) B5(14) B6(19) B7(15) B8(14) B9(12)
 B10(17) B11(13) B12(19) B13(15) B14(5) B15(17) B16(9) B17(13) B18(0)
 B19(2) B20(4) B21(2) B22(2) B23(2) B24(4) B25(2) B26(2) B27(2) B28(0)
 B29(2) B30(2) B31(0) B32(2) B33(2) B34(4) B35(0) B36(4) B37(2) B38(0)
 B39(2) B40(2) B41(2) B42(4) B43(2) B44(2) B45(0) B46(0) B47(0) B48(0)
 B49(2) B50(4) B51(2) B52(2) B53(2) B54(0) B55(0) B56(0) B57(2) B58(0)
 B59(2) B60(2) B61(0) B62(4) B63(0) B64(0) B65(0) B66(4) B67(2) B68(0)
 B69(2) B70(2) B71(2) B72(0) B73(0) B74(0) B75(0) B76(0) B77(0) B78(0)
 B79(2) B80(2) B81(0) B82(0) B83(0) B84(0) B85(0) B86(0) B87(2) B88(0)
 B89(0) B90(0) B91(0) B92(0) B93(0) B94(0) B95(0) B96(2) B97(0) B98(0)
 B118(5) B119(5) B120(5) B121(5) B122(5) B123(5)
Generals
 I99(23) I100(17) I101(7) I102(21) I103(20) I104(14) I105(22) I106(18)
 I107(14) I108(12) I109(18) I110(14) I111(21) I112(17) I113(7) I114(19)
 I115(10) I116(14) I117(1)
End
